1532936.96 0
0 1 3 2 4 5 7 6 9 8 10 11 13 12 14 15 17 16 18 19 21 20 304 305 306 307 308 309 310 311 312 313 314 315 316 317 318 55 54 53 52 303 302 301 300 299 51 298 297 296 295 294 293 292 291 290 289 288 287 286 285 284 283 282 50 281 280 279 278 277 276 275 274 273 272 271 270 269 268 267 49 266 265 264 263 262 261 260 259 258 257 256 255 254 253 252 251 250 249 248 247 48 246 245 244 243 242 241 240 239 238 237 236 235 234 233 232 231 230 229 228 227 226 225 224 223 222 221 220 219 218 217 216 215 214 213 212 211 210 209 208 207 206 205 204 203 202 201 200 199 198 197 196 195 194 193 192 191 190 189 47 188 187 186 185 184 183 182 181 180 179 178 177 176 175 174 173 172 171 170 169 168 167 166 165 164 163 162 161 46 45 160 159 158 157 156 155 154 153 152 151 150 149 148 147 44 43 42 137 136 135 134 133 132 131 130 129 128 127 126 125 124 123 122 121 120 119 118 117 116 115 114 113 112 111 110 109 108 41 107 106 105 104 103 102 101 100 99 98 40 97 96 39 95 94 93 92 91 90 89 88 87 86 85 84 83 82 38 36 37 81 80 79 25 78 77 35 76 75 74 73 72 71 70 69 68 34 67 66 65 64 63 62 61 60 59 58 57 56 23 22 24 26 27 29 28 30 31 32 33 138 139 140 141 142 143 144 145 146
1546424.41 0
0 1 3 2 4 5 7 6 8 9 11 10 12 13 15 14 261 262 263 264 265 266 267 16 17 19 18 21 20 299 300 301 302 303 304 305 306 307 308 309 310 311 312 313 314 315 316 317 318 55 54 53 52 51 298 297 296 295 294 293 292 291 290 289 288 287 286 285 284 283 50 282 281 280 279 278 277 276 275 274 273 272 271 270 269 268 49 260 259 258 257 256 255 254 253 252 251 250 249 248 48 247 246 245 244 243 242 241 240 239 238 237 236 235 234 233 232 231 230 229 228 227 226 225 224 223 222 221 220 219 218 217 216 215 214 213 212 211 210 209 208 207 206 205 204 203 202 201 200 199 198 197 196 195 194 193 192 191 190 189 47 188 187 186 185 184 183 182 181 180 179 178 177 176 175 174 173 172 171 170 169 168 167 166 165 164 163 162 46 45 161 160 159 158 157 156 155 154 153 152 151 150 149 44 43 42 137 136 135 134 133 132 131 130 129 128 127 126 125 124 123 122 121 120 119 118 117 116 115 114 113 112 111 110 109 108 41 107 29 106 105 104 103 102 101 100 99 98 40 97 96 39 95 94 93 92 91 90 89 88 87 86 85 84 83 82 38 36 37 81 80 79 78 35 77 76 75 74 73 72 71 70 69 68 34 67 66 65 64 63 62 61 60 59 58 57 56 23 22 24 25 27 26 28 30 31 32 33 138 139 140 141 142 143 144 145 146 147 148
1544002.53 0
0 2 3 5 4 188 189 190 6 7 9 8 11 10 12 13 15 14 16 17 19 18 21 20 299 300 301 302 303 304 305 306 307 308 309 310 311 312 313 314 315 316 317 318 55 54 53 52 51 298 297 296 295 294 293 292 291 290 289 288 287 286 285 284 283 50 282 281 280 279 278 277 276 275 274 273 272 271 270 269 268 267 266 49 265 264 263 262 261 260 259 258 257 256 255 254 253 252 251 250 249 248 247 48 246 245 244 243 242 241 240 239 238 237 236 235 234 233 232 231 230 229 228 227 226 225 224 223 222 221 220 219 218 217 216 215 214 213 212 211 210 209 208 207 206 205 204 203 202 201 200 199 198 197 196 195 194 193 192 191 47 187 186 185 184 183 182 181 180 179 178 177 176 175 174 173 172 171 170 169 168 167 166 165 164 46 45 163 162 161 160 159 158 157 156 155 154 153 152 151 150 149 148 147 44 43 146 145 144 143 142 141 140 139 138 42 137 136 135 134 133 132 131 130 129 128 127 126 125 124 123 122 121 120 119 118 117 116 115 114 113 112 111 110 109 108 107 41 106 105 104 103 102 101 100 99 40 98 97 96 39 95 94 93 92 91 90 89 88 87 86 85 84 83 38 36 37 82 25 81 80 79 78 35 77 76 75 74 73 72 71 70 69 68 34 67 66 65 64 63 62 61 60 59 58 57 56 23 22 24 26 27 29 28 30 31 33 32 1
